benchmarks/denorm/simpleloopV2/simpleloopV2_denorm_inv1_len2_1.smt2
;--------------------------------------------------------------------------
; Benchmark created with Zazu
; Benchmark: 		simpleloopV2_denorm_inv1_len2_1
; Created:   		2022-01-05 21:28
; Generator of the ideal: 
; 		 x - y00 - x00 + y
; Testing invariant: (x - y00 - x00 + y) * (y + x^2*y^2)
;--------------------------------------------------------------------------

(set-logic NIA)
(set-option :produce-proofs true)

(declare-const x00 Int)
(declare-const y00 Int)

(assert 
	(exists
		((x Int) (y Int))
		(and
			(= (+ (- x y00 x00) y) 0)

			(or
				(not (= (* (+ (- x 1 y00 x00) y 1) (+ y 1 (* (- x 1) (- x 1) (+ y 1) (+ y 1)))) 0))
				(not (= (* (+ (- (+ x 1) y00 x00) (- y 1)) (+ (- y 1) (* (+ x 1) (+ x 1) (- y 1) (- y 1)))) 0))
			)
		)
	)
)
(check-sat)
(get-proof)
(exit)
